% Instance for pentominoes model generated using https://github.com/zayenz/minizinc-pentominoes-generator
% Instance generated for board size 15 with 5 tiles using 4711 as seed
% Generated board
%    444444422225555
%    444444422225555
%    444444422225555
%    144444422222555
%    111444422222225
%    111142222222222
%    111144222222222
%    111111223333222
%    111111223333333
%    111111333333333
%    111111333333333
%    111111113333333
%    111111113333333
%    111111111333333
%    111111111333333

size = 15;
tiles = 5;
expressions = [
    "( ([2 3 4 5 6]* 1{1} [2 3 4 5 6]{14} [2 3 4 5 6] 1{3} [2 3 4 5 6]{12} [2 3 4 5 6] 1{4} [2 3 4 5 6]{11} [2 3 4 5 6] 1{4} [2 3 4 5 6]{11} [2 3 4 5 6] 1{6} [2 3 4 5 6]{9} [2 3 4 5 6] 1{6} [2 3 4 5 6]{9} [2 3 4 5 6] 1{6} [2 3 4 5 6]{9} [2 3 4 5 6] 1{6} [2 3 4 5 6]{9} [2 3 4 5 6] 1{8} [2 3 4 5 6]{7} [2 3 4 5 6] 1{8} [2 3 4 5 6]{7} [2 3 4 5 6] 1{9} [2 3 4 5 6]{6} [2 3 4 5 6] 1{9} [2 3 4 5 6]*) | ([2 3 4 5 6]* 1{12} [2 3 4 5 6]{3} [2 3 4 5 6] 1{11} [2 3 4 5 6]{4} [2 3 4 5 6] 1{11} [2 3 4 5 6]{4} [2 3 4 5 6] 1{10} [2 3 4 5 6]{5} [2 3 4 5 6] 1{8} [2 3 4 5 6]{7} [2 3 4 5 6] 1{8} [2 3 4 5 6]{7} [2 3 4 5 6] 1{4} [2 3 4 5 6]{11} [2 3 4 5 6] 1{4} [2 3 4 5 6]{11} [2 3 4 5 6] 1{2} [2 3 4 5 6]*) | ([2 3 4 5 6]* 1{9} [2 3 4 5 6] [2 3 4 5 6]{6} 1{9} [2 3 4 5 6] [2 3 4 5 6]{7} 1{8} [2 3 4 5 6] [2 3 4 5 6]{7} 1{8} [2 3 4 5 6] [2 3 4 5 6]{9} 1{6} [2 3 4 5 6] [2 3 4 5 6]{9} 1{6} [2 3 4 5 6] [2 3 4 5 6]{9} 1{6} [2 3 4 5 6] [2 3 4 5 6]{9} 1{6} [2 3 4 5 6] [2 3 4 5 6]{11} 1{4} [2 3 4 5 6] [2 3 4 5 6]{11} 1{4} [2 3 4 5 6] [2 3 4 5 6]{12} 1{3} [2 3 4 5 6] [2 3 4 5 6]{14} 1{1} [2 3 4 5 6]*) | ([2 3 4 5 6]* 1{2} [2 3 4 5 6] [2 3 4 5 6]{11} 1{4} [2 3 4 5 6] [2 3 4 5 6]{11} 1{4} [2 3 4 5 6] [2 3 4 5 6]{7} 1{8} [2 3 4 5 6] [2 3 4 5 6]{7} 1{8} [2 3 4 5 6] [2 3 4 5 6]{5} 1{10} [2 3 4 5 6] [2 3 4 5 6]{4} 1{11} [2 3 4 5 6] [2 3 4 5 6]{4} 1{11} [2 3 4 5 6] [2 3 4 5 6]{3} 1{12} [2 3 4 5 6]*) | ([2 3 4 5 6]* 1{1} [2 3 4 5 6] [2 3 4 5 6]{12} 1{3} [2 3 4 5 6] [2 3 4 5 6]{11} 1{4} [2 3 4 5 6] [2 3 4 5 6]{11} 1{4} [2 3 4 5 6] [2 3 4 5 6]{9} 1{6} [2 3 4 5 6] [2 3 4 5 6]{9} 1{6} [2 3 4 5 6] [2 3 4 5 6]{9} 1{6} [2 3 4 5 6] [2 3 4 5 6]{9} 1{6} [2 3 4 5 6] [2 3 4 5 6]{7} 1{8} [2 3 4 5 6] [2 3 4 5 6]{7} 1{8} [2 3 4 5 6] [2 3 4 5 6]{6} 1{9} [2 3 4 5 6] [2 3 4 5 6]{6} 1{9} [2 3 4 5 6]*) | ([2 3 4 5 6]* 1{12} [2 3 4 5 6] [2 3 4 5 6]{4} 1{11} [2 3 4 5 6] [2 3 4 5 6]{4} 1{11} [2 3 4 5 6] [2 3 4 5 6]{5} 1{10} [2 3 4 5 6] [2 3 4 5 6]{7} 1{8} [2 3 4 5 6] [2 3 4 5 6]{7} 1{8} [2 3 4 5 6] [2 3 4 5 6]{11} 1{4} [2 3 4 5 6] [2 3 4 5 6]{11} 1{4} [2 3 4 5 6] [2 3 4 5 6]{13} 1{2} [2 3 4 5 6]*) | ([2 3 4 5 6]* 1{9} [2 3 4 5 6]{6} [2 3 4 5 6] 1{9} [2 3 4 5 6]{6} [2 3 4 5 6] 1{8} [2 3 4 5 6]{7} [2 3 4 5 6] 1{8} [2 3 4 5 6]{7} [2 3 4 5 6] 1{6} [2 3 4 5 6]{9} [2 3 4 5 6] 1{6} [2 3 4 5 6]{9} [2 3 4 5 6] 1{6} [2 3 4 5 6]{9} [2 3 4 5 6] 1{6} [2 3 4 5 6]{9} [2 3 4 5 6] 1{4} [2 3 4 5 6]{11} [2 3 4 5 6] 1{4} [2 3 4 5 6]{11} [2 3 4 5 6] 1{3} [2 3 4 5 6]{12} [2 3 4 5 6] 1{1} [2 3 4 5 6]*) | ([2 3 4 5 6]* 1{2} [2 3 4 5 6]{13} [2 3 4 5 6] 1{4} [2 3 4 5 6]{11} [2 3 4 5 6] 1{4} [2 3 4 5 6]{11} [2 3 4 5 6] 1{8} [2 3 4 5 6]{7} [2 3 4 5 6] 1{8} [2 3 4 5 6]{7} [2 3 4 5 6] 1{10} [2 3 4 5 6]{5} [2 3 4 5 6] 1{11} [2 3 4 5 6]{4} [2 3 4 5 6] 1{11} [2 3 4 5 6]{4} [2 3 4 5 6] 1{12} [2 3 4 5 6]*) )",
    "( ([1 3 4 5 6]* 2{4} [1 3 4 5 6]{4} [1 3 4 5 6] [1 3 4 5 6]{7} 2{4} [1 3 4 5 6]{4} [1 3 4 5 6] [1 3 4 5 6]{7} 2{4} [1 3 4 5 6]{4} [1 3 4 5 6] [1 3 4 5 6]{7} 2{5} [1 3 4 5 6]{3} [1 3 4 5 6] [1 3 4 5 6]{7} 2{7} [1 3 4 5 6]{1} [1 3 4 5 6] [1 3 4 5 6]{5} 2{10} [1 3 4 5 6] [1 3 4 5 6]{6} 2{9} [1 3 4 5 6] [1 3 4 5 6]{6} 2{2} [1 3 4 5 6]{4} 2{3} [1 3 4 5 6] [1 3 4 5 6]{6} 2{2} [1 3 4 5 6]*) | ([1 3 4 5 6]* 2{1} [1 3 4 5 6]{5} [1 3 4 5 6] [1 3 4 5 6]{6} 2{4} [1 3 4 5 6]{5} [1 3 4 5 6] [1 3 4 5 6]{6} 2{9} [1 3 4 5 6] [1 3 4 5 6]{8} 2{7} [1 3 4 5 6] [1 3 4 5 6]{8} 2{7} [1 3 4 5 6] [1 3 4 5 6]{8} 2{7} [1 3 4 5 6] [1 3 4 5 6]{8} 2{4} [1 3 4 5 6]{3} [1 3 4 5 6] [1 3 4 5 6]{7} 2{4} [1 3 4 5 6]{4} [1 3 4 5 6] [1 3 4 5 6]{7} 2{4} [1 3 4 5 6]{4} [1 3 4 5 6] [1 3 4 5 6]{7} 2{3} [1 3 4 5 6]*) | ([1 3 4 5 6]* 2{2} [1 3 4 5 6]{6} [1 3 4 5 6] 2{3} [1 3 4 5 6]{4} 2{2} [1 3 4 5 6]{6} [1 3 4 5 6] 2{9} [1 3 4 5 6]{6} [1 3 4 5 6] 2{10} [1 3 4 5 6]{5} [1 3 4 5 6] [1 3 4 5 6]{1} 2{7} [1 3 4 5 6]{7} [1 3 4 5 6] [1 3 4 5 6]{3} 2{5} [1 3 4 5 6]{7} [1 3 4 5 6] [1 3 4 5 6]{4} 2{4} [1 3 4 5 6]{7} [1 3 4 5 6] [1 3 4 5 6]{4} 2{4} [1 3 4 5 6]{7} [1 3 4 5 6] [1 3 4 5 6]{4} 2{4} [1 3 4 5 6]*) | ([1 3 4 5 6]* 2{3} [1 3 4 5 6]{7} [1 3 4 5 6] [1 3 4 5 6]{4} 2{4} [1 3 4 5 6]{7} [1 3 4 5 6] [1 3 4 5 6]{4} 2{4} [1 3 4 5 6]{7} [1 3 4 5 6] [1 3 4 5 6]{3} 2{4} [1 3 4 5 6]{8} [1 3 4 5 6] 2{7} [1 3 4 5 6]{8} [1 3 4 5 6] 2{7} [1 3 4 5 6]{8} [1 3 4 5 6] 2{7} [1 3 4 5 6]{8} [1 3 4 5 6] 2{9} [1 3 4 5 6]{6} [1 3 4 5 6] [1 3 4 5 6]{5} 2{4} [1 3 4 5 6]{6} [1 3 4 5 6] [1 3 4 5 6]{5} 2{1} [1 3 4 5 6]*) | ([1 3 4 5 6]* 2{4} [1 3 4 5 6]{7} [1 3 4 5 6] [1 3 4 5 6]{4} 2{4} [1 3 4 5 6]{7} [1 3 4 5 6] [1 3 4 5 6]{4} 2{4} [1 3 4 5 6]{7} [1 3 4 5 6] [1 3 4 5 6]{3} 2{5} [1 3 4 5 6]{7} [1 3 4 5 6] [1 3 4 5 6]{1} 2{7} [1 3 4 5 6]{7} [1 3 4 5 6] 2{10} [1 3 4 5 6]{5} [1 3 4 5 6] 2{9} [1 3 4 5 6]{6} [1 3 4 5 6] 2{3} [1 3 4 5 6]{4} 2{2} [1 3 4 5 6]{6} [1 3 4 5 6] [1 3 4 5 6]{7} 2{2} [1 3 4 5 6]*) | ([1 3 4 5 6]* 2{1} [1 3 4 5 6]{9} [1 3 4 5 6] [1 3 4 5 6]{5} 2{4} [1 3 4 5 6]{6} [1 3 4 5 6] 2{9} [1 3 4 5 6]{6} [1 3 4 5 6] 2{7} [1 3 4 5 6]{8} [1 3 4 5 6] 2{7} [1 3 4 5 6]{8} [1 3 4 5 6] 2{7} [1 3 4 5 6]{8} [1 3 4 5 6] [1 3 4 5 6]{3} 2{4} [1 3 4 5 6]{8} [1 3 4 5 6] [1 3 4 5 6]{4} 2{4} [1 3 4 5 6]{7} [1 3 4 5 6] [1 3 4 5 6]{4} 2{4} [1 3 4 5 6]{7} [1 3 4 5 6] [1 3 4 5 6]{5} 2{3} [1 3 4 5 6]*) | ([1 3 4 5 6]* 2{2} [1 3 4 5 6]{7} [1 3 4 5 6] [1 3 4 5 6]{6} 2{2} [1 3 4 5 6]{4} 2{3} [1 3 4 5 6] [1 3 4 5 6]{6} 2{9} [1 3 4 5 6] [1 3 4 5 6]{5} 2{10} [1 3 4 5 6] [1 3 4 5 6]{7} 2{7} [1 3 4 5 6]{1} [1 3 4 5 6] [1 3 4 5 6]{7} 2{5} [1 3 4 5 6]{3} [1 3 4 5 6] [1 3 4 5 6]{7} 2{4} [1 3 4 5 6]{4} [1 3 4 5 6] [1 3 4 5 6]{7} 2{4} [1 3 4 5 6]{4} [1 3 4 5 6] [1 3 4 5 6]{7} 2{4} [1 3 4 5 6]*) | ([1 3 4 5 6]* 2{3} [1 3 4 5 6]{5} [1 3 4 5 6] [1 3 4 5 6]{7} 2{4} [1 3 4 5 6]{4} [1 3 4 5 6] [1 3 4 5 6]{7} 2{4} [1 3 4 5 6]{4} [1 3 4 5 6] [1 3 4 5 6]{8} 2{4} [1 3 4 5 6]{3} [1 3 4 5 6] [1 3 4 5 6]{8} 2{7} [1 3 4 5 6] [1 3 4 5 6]{8} 2{7} [1 3 4 5 6] [1 3 4 5 6]{8} 2{7} [1 3 4 5 6] [1 3 4 5 6]{6} 2{9} [1 3 4 5 6] [1 3 4 5 6]{6} 2{4} [1 3 4 5 6]{5} [1 3 4 5 6] [1 3 4 5 6]{9} 2{1} [1 3 4 5 6]*) )",
    "( ([1 2 4 5 6]* 3{4} [1 2 4 5 6]{3} [1 2 4 5 6] [1 2 4 5 6]{8} 3{7} [1 2 4 5 6] [1 2 4 5 6]{6} 3{9} [1 2 4 5 6] [1 2 4 5 6]{6} 3{9} [1 2 4 5 6] [1 2 4 5 6]{8} 3{7} [1 2 4 5 6] [1 2 4 5 6]{8} 3{7} [1 2 4 5 6] [1 2 4 5 6]{9} 3{6} [1 2 4 5 6] [1 2 4 5 6]{9} 3{6} [1 2 4 5 6]*) | ([1 2 4 5 6]* 3{2} [1 2 4 5 6]{9} [1 2 4 5 6] [1 2 4 5 6]{4} 3{2} [1 2 4 5 6]{9} [1 2 4 5 6] [1 2 4 5 6]{2} 3{6} [1 2 4 5 6]{7} [1 2 4 5 6] 3{8} [1 2 4 5 6]{7} [1 2 4 5 6] 3{8} [1 2 4 5 6]{7} [1 2 4 5 6] 3{8} [1 2 4 5 6]{7} [1 2 4 5 6] 3{7} [1 2 4 5 6]{8} [1 2 4 5 6] 3{7} [1 2 4 5 6]{8} [1 2 4 5 6] 3{7} [1 2 4 5 6]*) | ([1 2 4 5 6]* 3{6} [1 2 4 5 6]{9} [1 2 4 5 6] 3{6} [1 2 4 5 6]{9} [1 2 4 5 6] 3{7} [1 2 4 5 6]{8} [1 2 4 5 6] 3{7} [1 2 4 5 6]{8} [1 2 4 5 6] 3{9} [1 2 4 5 6]{6} [1 2 4 5 6] 3{9} [1 2 4 5 6]{6} [1 2 4 5 6] 3{7} [1 2 4 5 6]{8} [1 2 4 5 6] [1 2 4 5 6]{3} 3{4} [1 2 4 5 6]*) | ([1 2 4 5 6]* 3{7} [1 2 4 5 6] [1 2 4 5 6]{8} 3{7} [1 2 4 5 6] [1 2 4 5 6]{8} 3{7} [1 2 4 5 6] [1 2 4 5 6]{7} 3{8} [1 2 4 5 6] [1 2 4 5 6]{7} 3{8} [1 2 4 5 6] [1 2 4 5 6]{7} 3{8} [1 2 4 5 6] [1 2 4 5 6]{7} 3{6} [1 2 4 5 6]{2} [1 2 4 5 6] [1 2 4 5 6]{9} 3{2} [1 2 4 5 6]{4} [1 2 4 5 6] [1 2 4 5 6]{9} 3{2} [1 2 4 5 6]*) | ([1 2 4 5 6]* 3{4} [1 2 4 5 6]{8} [1 2 4 5 6] 3{7} [1 2 4 5 6]{8} [1 2 4 5 6] 3{9} [1 2 4 5 6]{6} [1 2 4 5 6] 3{9} [1 2 4 5 6]{6} [1 2 4 5 6] 3{7} [1 2 4 5 6]{8} [1 2 4 5 6] 3{7} [1 2 4 5 6]{8} [1 2 4 5 6] 3{6} [1 2 4 5 6]{9} [1 2 4 5 6] 3{6} [1 2 4 5 6]*) | ([1 2 4 5 6]* 3{2} [1 2 4 5 6]{4} [1 2 4 5 6] [1 2 4 5 6]{9} 3{2} [1 2 4 5 6]{4} [1 2 4 5 6] [1 2 4 5 6]{7} 3{6} [1 2 4 5 6]{2} [1 2 4 5 6] [1 2 4 5 6]{7} 3{8} [1 2 4 5 6] [1 2 4 5 6]{7} 3{8} [1 2 4 5 6] [1 2 4 5 6]{7} 3{8} [1 2 4 5 6] [1 2 4 5 6]{8} 3{7} [1 2 4 5 6] [1 2 4 5 6]{8} 3{7} [1 2 4 5 6] [1 2 4 5 6]{8} 3{7} [1 2 4 5 6]*) | ([1 2 4 5 6]* 3{6} [1 2 4 5 6] [1 2 4 5 6]{9} 3{6} [1 2 4 5 6] [1 2 4 5 6]{8} 3{7} [1 2 4 5 6] [1 2 4 5 6]{8} 3{7} [1 2 4 5 6] [1 2 4 5 6]{6} 3{9} [1 2 4 5 6] [1 2 4 5 6]{6} 3{9} [1 2 4 5 6] [1 2 4 5 6]{8} 3{7} [1 2 4 5 6] [1 2 4 5 6]{8} 3{4} [1 2 4 5 6]*) | ([1 2 4 5 6]* 3{7} [1 2 4 5 6]{8} [1 2 4 5 6] 3{7} [1 2 4 5 6]{8} [1 2 4 5 6] 3{7} [1 2 4 5 6]{8} [1 2 4 5 6] 3{8} [1 2 4 5 6]{7} [1 2 4 5 6] 3{8} [1 2 4 5 6]{7} [1 2 4 5 6] 3{8} [1 2 4 5 6]{7} [1 2 4 5 6] [1 2 4 5 6]{2} 3{6} [1 2 4 5 6]{7} [1 2 4 5 6] [1 2 4 5 6]{4} 3{2} [1 2 4 5 6]{9} [1 2 4 5 6] [1 2 4 5 6]{4} 3{2} [1 2 4 5 6]*) )",
    "( ([1 2 3 5 6]* 4{7} [1 2 3 5 6]{8} [1 2 3 5 6] 4{7} [1 2 3 5 6]{8} [1 2 3 5 6] 4{7} [1 2 3 5 6]{8} [1 2 3 5 6] [1 2 3 5 6]{1} 4{6} [1 2 3 5 6]{8} [1 2 3 5 6] [1 2 3 5 6]{3} 4{4} [1 2 3 5 6]{8} [1 2 3 5 6] [1 2 3 5 6]{4} 4{1} [1 2 3 5 6]{10} [1 2 3 5 6] [1 2 3 5 6]{4} 4{2} [1 2 3 5 6]*) | ([1 2 3 5 6]* 4{3} [1 2 3 5 6] [1 2 3 5 6]{11} 4{4} [1 2 3 5 6] [1 2 3 5 6]{11} 4{4} [1 2 3 5 6] [1 2 3 5 6]{10} 4{5} [1 2 3 5 6] [1 2 3 5 6]{8} 4{7} [1 2 3 5 6] [1 2 3 5 6]{8} 4{1} [1 2 3 5 6]{1} 4{5} [1 2 3 5 6] [1 2 3 5 6]{10} 4{5} [1 2 3 5 6]*) | ([1 2 3 5 6]* 4{2} [1 2 3 5 6]{4} [1 2 3 5 6] [1 2 3 5 6]{10} 4{1} [1 2 3 5 6]{4} [1 2 3 5 6] [1 2 3 5 6]{8} 4{4} [1 2 3 5 6]{3} [1 2 3 5 6] [1 2 3 5 6]{8} 4{6} [1 2 3 5 6]{1} [1 2 3 5 6] [1 2 3 5 6]{8} 4{7} [1 2 3 5 6] [1 2 3 5 6]{8} 4{7} [1 2 3 5 6] [1 2 3 5 6]{8} 4{7} [1 2 3 5 6]*) | ([1 2 3 5 6]* 4{5} [1 2 3 5 6]{10} [1 2 3 5 6] 4{5} [1 2 3 5 6]{1} 4{1} [1 2 3 5 6]{8} [1 2 3 5 6] 4{7} [1 2 3 5 6]{8} [1 2 3 5 6] 4{5} [1 2 3 5 6]{10} [1 2 3 5 6] 4{4} [1 2 3 5 6]{11} [1 2 3 5 6] 4{4} [1 2 3 5 6]{11} [1 2 3 5 6] 4{3} [1 2 3 5 6]*) | ([1 2 3 5 6]* 4{7} [1 2 3 5 6] [1 2 3 5 6]{8} 4{7} [1 2 3 5 6] [1 2 3 5 6]{8} 4{7} [1 2 3 5 6] [1 2 3 5 6]{8} 4{6} [1 2 3 5 6]{1} [1 2 3 5 6] [1 2 3 5 6]{8} 4{4} [1 2 3 5 6]{3} [1 2 3 5 6] [1 2 3 5 6]{10} 4{1} [1 2 3 5 6]{4} [1 2 3 5 6] [1 2 3 5 6]{9} 4{2} [1 2 3 5 6]*) | ([1 2 3 5 6]* 4{3} [1 2 3 5 6]{12} [1 2 3 5 6] 4{4} [1 2 3 5 6]{11} [1 2 3 5 6] 4{4} [1 2 3 5 6]{11} [1 2 3 5 6] 4{5} [1 2 3 5 6]{10} [1 2 3 5 6] 4{7} [1 2 3 5 6]{8} [1 2 3 5 6] 4{5} [1 2 3 5 6]{1} 4{1} [1 2 3 5 6]{8} [1 2 3 5 6] 4{5} [1 2 3 5 6]*) | ([1 2 3 5 6]* 4{2} [1 2 3 5 6]{9} [1 2 3 5 6] [1 2 3 5 6]{4} 4{1} [1 2 3 5 6]{10} [1 2 3 5 6] [1 2 3 5 6]{3} 4{4} [1 2 3 5 6]{8} [1 2 3 5 6] [1 2 3 5 6]{1} 4{6} [1 2 3 5 6]{8} [1 2 3 5 6] 4{7} [1 2 3 5 6]{8} [1 2 3 5 6] 4{7} [1 2 3 5 6]{8} [1 2 3 5 6] 4{7} [1 2 3 5 6]*) | ([1 2 3 5 6]* 4{5} [1 2 3 5 6] [1 2 3 5 6]{8} 4{1} [1 2 3 5 6]{1} 4{5} [1 2 3 5 6] [1 2 3 5 6]{8} 4{7} [1 2 3 5 6] [1 2 3 5 6]{10} 4{5} [1 2 3 5 6] [1 2 3 5 6]{11} 4{4} [1 2 3 5 6] [1 2 3 5 6]{11} 4{4} [1 2 3 5 6] [1 2 3 5 6]{12} 4{3} [1 2 3 5 6]*) )",
    "( ([1 2 3 4 6]* 5{4} [1 2 3 4 6] [1 2 3 4 6]{11} 5{4} [1 2 3 4 6] [1 2 3 4 6]{11} 5{4} [1 2 3 4 6] [1 2 3 4 6]{12} 5{3} [1 2 3 4 6] [1 2 3 4 6]{14} 5{1} [1 2 3 4 6]*) | ([1 2 3 4 6]* 5{3} [1 2 3 4 6] [1 2 3 4 6]{11} 5{4} [1 2 3 4 6] [1 2 3 4 6]{11} 5{4} [1 2 3 4 6] [1 2 3 4 6]{10} 5{5} [1 2 3 4 6]*) | ([1 2 3 4 6]* 5{1} [1 2 3 4 6]{14} [1 2 3 4 6] 5{3} [1 2 3 4 6]{12} [1 2 3 4 6] 5{4} [1 2 3 4 6]{11} [1 2 3 4 6] 5{4} [1 2 3 4 6]{11} [1 2 3 4 6] 5{4} [1 2 3 4 6]*) | ([1 2 3 4 6]* 5{5} [1 2 3 4 6]{10} [1 2 3 4 6] 5{4} [1 2 3 4 6]{11} [1 2 3 4 6] 5{4} [1 2 3 4 6]{11} [1 2 3 4 6] 5{3} [1 2 3 4 6]*) | ([1 2 3 4 6]* 5{4} [1 2 3 4 6]{11} [1 2 3 4 6] 5{4} [1 2 3 4 6]{11} [1 2 3 4 6] 5{4} [1 2 3 4 6]{11} [1 2 3 4 6] 5{3} [1 2 3 4 6]{12} [1 2 3 4 6] 5{1} [1 2 3 4 6]*) | ([1 2 3 4 6]* 5{3} [1 2 3 4 6]{12} [1 2 3 4 6] 5{4} [1 2 3 4 6]{11} [1 2 3 4 6] 5{4} [1 2 3 4 6]{11} [1 2 3 4 6] 5{5} [1 2 3 4 6]*) | ([1 2 3 4 6]* 5{1} [1 2 3 4 6] [1 2 3 4 6]{12} 5{3} [1 2 3 4 6] [1 2 3 4 6]{11} 5{4} [1 2 3 4 6] [1 2 3 4 6]{11} 5{4} [1 2 3 4 6] [1 2 3 4 6]{11} 5{4} [1 2 3 4 6]*) | ([1 2 3 4 6]* 5{5} [1 2 3 4 6] [1 2 3 4 6]{11} 5{4} [1 2 3 4 6] [1 2 3 4 6]{11} 5{4} [1 2 3 4 6] [1 2 3 4 6]{12} 5{3} [1 2 3 4 6]*) )",
];
